97070,35138,33820,32389,32389,32389,32389,32047,31631,28895,27386,26281,26281,26281,26281,26281,26281,26281,26281,26281,26281,26281,26281,26281,26281,26281,26281,26281,26281,26281,26281,26281,26281,26281,26281,26281,26281,26281,26281,26281,26281,26281,26281,26281,26281,26281,26281,26281,26281,26281,26281,26281,26281,26281,26281,26281,26281,26281,26281,26281,26281,26281,26281,26281,26281,26281,26281,26281,26281,26281,26281,26281,26281,26281,26281,26281,26281,26281,26281,26281,26281,26281,26281,26281,26281,26281,26281,26281,26281,26281,26281,26281,26281,26281,26281,26281,26281,26281,26281,26281,26281,26281,26281,26281,26281,26281,26281,26281,26281,26281,26281,26281,26281,26281,26281,26281,26281,26281,26281,26281,26281,26281,26281,26281,26281,26281,26281,26281,26281,26281,26281,26281,26281,26281,26281,26281,26281,26281,26281,26281,26281,26281,26281,26281,26281,26281,26281,26281,26281,26281,26281,26281,26281,26281,26281,26281,26281,26281,26281,26281,26281,26281,26281,26281,26281,26281,26281,26281,26281,26281,26281,26281,26281,26281,26281,26281,26281,26281,26281,26281,26281,26281,26281,26281,26281,26281,26281,26281,26281,26281,26281,26281,26281,26281,26281,26281,26281,26281,26281,26281,26281,26281,26281,26281,26281,26281,26281,26281,26281,26281,26281,26281,26281,26281,26281,26281,26281,26281,26281,26281,26281,26281,26281,26281,26281,26281,26281,26281,26281,26281,26281,26281,26281,26281,26281,26281,26281,26281,26281,26281,26281,26281,26281,26033,25905,25905,25905,25905,25905,25905,25901,25901,25901,25901,25901,25901,25901,25901,25901,25899,25668,25668,25668,25668,25668,25656,25656,25656,25656,25656,25592,25589,25589,25589,25377,25377,25377,25377,25377,25377,25377,25377,25377,25377,25377,25377,25377,25377,25377,25377,25377,25377,25353,25353,25353,25353,25353,25353,25342,25277,25277,25277,25277,25277,25277,25277,25056,25056,25056,25056,25056,25056,25056,25056,25056,25056,25056,25056,25056,25056,25056,25056,25056,25056,25056,25056,25056,25056,25056,25056,25056,25056,25056,25056,25056,25056,25056,25056,25056,25056,25056,25056,25056,24942,24942,24942,24804,24804,24804,24804,24804,24804,24804,24804,24804,24804,24804,24794,24794,24778,24778,24778,24778,24778,24778,24778,24778,24759,24759,24759,24759,24759,24731,24731,24731,24731,24731,24731,24731,24731,24731,24731,24731,24731,24731,24731,24731,24731,24731,24731,24731,24731,24705,24705,24705,24705,24705,24702,24702,24702,24702,24702,24702,24702,24702,24702,24702,24702,24702,24702,24702,24695,24695,24695,24695,24695,24695,24695,24581,24581,24581,24581,24581,24581,24581,24409,24409,24409,24409,24409,24409,24409,24409,24409,24265,24265,24265,24265,24265,24265,24265,24265,24265,24265,24265,24265,24265,24265,24265,24265,24265,24265,24265,24265,24265,24265,24265,24265,24265,24265,24265,24265,24265,24265,24265,24265,24265,24265,24265,24265,24265,24265,24265,24265,24265,24265,24265,24265,24265,24265,24265,24265,24265,24265,24265,24265,24265,24265,24265,24265,24265,24265,24265,24265,24265,24265,24265,24265,24265,24265,24211,24211,24211,24211,24211,24211,24211,24211,24211,24211,24211,24211,24211,24211,24211,24211,24211,24211,24211,24211,24211,24211,24211,24211,24211,24211,24211,24211,24211,24211,24211,24211,24211,24211,24211,24211,24211,24211,24211,24211,24211,24211,24211,24211,24211,24211,24211,24211,24211,24211,24211,24211,24211,24211,24211,24211,24211,24211,24211,24211,24211,24211,24211,24211,24211,24211,24211,24211,24211,24211,24211,24211,24211,24211,24211,24211,24211,24211,24211,24211,24211,24211,24211,24211,24211,24211,24211,24211,24211,24211,24211,24211,24211,24211,24211,24211,24211,24211,24211,24211,24211,24211,24211,24211,24211,24211,24211,24211,24211,24211,24211,24211,24211,24211,24211,24211,24211,24211,24211,24211,24211,24211,24211,24211,24211,24211,24211,24211,24211,24211,24211,24211,24211,24211,24211,24211,24211,24211,24211,24211,24211,24211,24211,24211,24211,24211,24211,24211,24211,24211,24211,24211,24211,24211,24211,24211,24211,24211,24211,24211,24211,24211,24211,24211,24211,24211,24211,24211,24211,24211,24211,24211,24211,24211,24211,24211,24211,24211,24211,24211,24211,24211,24211,24211,24211,24211,24211,24211,24211,24211,24211,24211,24211,24211,24211,24211,24211,24211,24211,24211,24211,24211,24211,24211,24211,24211,24211,24211,24211,24211,24211,24211,24211,24211,24211,24211,24211,24211,24211,24211,24211,24211,24211,24211,24211,24211,24211,24211,24211,24211,24211,24211,24211,24211,24211,24211,24211,24211,24211,24211,24211,24211,24211,24211,24211,24211,24211,24211,24211,24211,24211,24211,24211,24211,24211,24211,24211,24211,24211,24211,24211,24211,24211,24211,24211,24211,24211,24211,24211,24211,24211,24211,24211,24211,24211,24211,24211,24211,24211,24211,24211,24211,24211,24211,24211,24211,24211,24211,24211,24211,24211,24211,24211,24211,24211,24211,24211,24211,24211,24211,24211,24211,24211,24211,24211,24211,24211,24211,24211,24211,24211,24211,24211,24211,24211,24211,24211,24211,24211,24211,24211,24211,24211,24211,24211,24211,24211,24211,24211,24211,24211,24211,24211,24211,24211,24211,24211,24211,24211,24211,24211,24211,24211,24211,24211,24211,24211,24211,24211,24211,24211,24211,24211,24211,24211,24211,24211,24211,24211,24211,24211,24211,24211,24211,24211,24211,24211,24211,24211,24211,24211,24211,24211,24211,24211,24211,24211,24211,24211,24211,24211,24211,24211,24211,24211,24211,24211,24211,24211,24211,24211,24211,24211,24211,24211,24211,24211,24211,24211,24211,24211,24211,24211,24211,24211,24211,24211,24211,24211,24211,24211,24211,24211,24211,24211,24211,24211,24211,24211,24211,24211,24211,24211,24211,24211,24211,24211,24211,24211,24211,24211,24211,24211,24211,24211,24211,24211,24211,24211,24211,24211,24211,24211,24211,24211,24211,24211,24211,24211,24211,24211,24211,24211,24211,24211,24211,24211,24211,24211,24211,24211,24211,24211,24211,24211,24211,24211,24211,24211,24211,24211,24211,24211,24211,24211,24211,24211,24211,24211,24211,24211,24211,24211,24211,24211,24211,24211,24211,24211,24211,24211,24211,24211,24211,24211,24211,24211,24211,24211,24211,24211,24211,24211,24211,24211,24211,24211,24211,24211,24211,24211,24211,24211,24211,24211,24211,24211,24211,24211,24211,24211,24211,24211,24211,24211,24211,24211,24211,24211,24211,24211,24211,24211,24211,24211,24211,24211,24211,24211,24211,24211,24211,24211,24211,24211,24211,24211,24211,24211,24211,24211,24211,24211,24211,24211,24211,24211,24211,24211,24211,24211,24211,24211,24211,24211,24211,24211,24211,24211,24211,24211,24211,24211,24211,24211,24211,24211,24211,24211,24211,24211,24211,24211,24211,24211,24211,24211,24211,24211,24211,24211,24211,24211,24211,24211,24211,24211,24211,24211,24211,24211,24211,24211,24211,24211,24211,24211,24211,24211,24211,24211,24211,24211,24211,24211,24211,24211,24211,24211,24211,24211,24211,24211,24211,24211,24211,24211,24211,24211,24211,24211,24211,24211,24211,24211,24211,24211,24211,24211,24211,24211,24211,24211,24211,24211,24211,24211,24211,24211,24211,24211,24211,24211,24211,24211,24211,24211,24211,24211,24211,24211,24211,24211,24211,24211,24211,24211,24211,24211,24211,24211,24211,24211,24211,24211,24211,24211,24211,24211,24211,24211,24211,24211,24211,24211,24211,24211,24211,24211,24211,24211,24211,24211,24211,24211,24211,24211,24211,24211,24211,24211,24211,24211,24211,24211,24211,24211,24211,24211,24211,24211,24211,24211,24211,24211,24211,24211,24211,24211,24211,24211,24211,24211,24211,24211,24211,24211,24211,24211,24211,24211,24211,24211,24211,24211,24211,24211,24211,24211,24211,24211,24211,24211,24211,24211,24211,24211,24211,24211,24211,24211,24211,24211,24211,24211,24211,24211,24211,24211,24211,24211,24211,24211,24211,24211,24211,24211,24211,24211,24211,24211,24211,24211,24211,24211,24211,24211,24211,24211,24211,24211,24211,24211,24211,24211,24211,24211,24211,24211,24211,24211,24211,24211,24211,24211,24211,24211,24211,24211,24211,24211,24211,24211,24211,24211,24211,24211,24211,24211,24211,24211,24211,24211,24211,24211,24211,24211,24211,24211,24211,24211,24211,24211,24211,24211,24211,24211,24211,24211,24211,24211,24211,24211,24211,24211,24211,24211,24211,24211,24211,24211,24211,24211,24211,24211,24211,24211,24211,24211,24211,24211,24211,24211,24211,24211,24211,24211,24211,24211,24211,24211,24211,24211,24211,24211,24211,24211,24211,24211,24211,24211,24211,24211,24211,24211,24211,24211,24211,24211,24211,24211,24211,24211,24211,24211,24211,24211,24211,24211,24211,24211,24211,24211,24211,24211,24211,24211,24211,24211,24211,24211,24211,24211,24211,24211,24211,24211,24211,24211,24211,24211,24211,24211,24211,24211,24211,24211,24211,24211,24211,24211,24211,24211,24211,24211,24211,24211,24211,24211,24211,24211,24211,24211,24211,24211,24211,24211,24211,24211,24211,24211,24211,24211,24211,24211,24211,24211,24211,24211,24211,24211,24211,24211,24211,24211,24159,24060,23757,23757,23757,23757,23757,23757,23658,23658,23658,23658,23658,23658,23658,23649,23649,23528,23528,23514,23514,23514,23514,23514,23514,23514,23514,23514,23514,23514,23514,23514,23384,23384,23384,23352,23352,23352,23352,23352,23352,23352,23352,23352,23352,23352,23352,23352,23352,23352,23352,23352,23352,23352,23352,23352,23352,23352,23352,23352,23352,23352,23352,23352,23352,23352,23352,23352,23352,23352,23352,23352,23352,23352,23352,23299,23299,23299,23299,23299,23299,23299,23299,23299,23299,23299,23299,23299,23299,23299,23299,23299,23299,23299,23299,23290,23290,23290,23290,23290,23290,23290,23290,23290,23290,23290,23290,23290,23290,23290,23290,23290,23290,23290,23290,23290,23290,23290,23290,23290,23290,23290,23290,23290,23290,23290,23290,23290,23290,23290,23290,23290,23290,23290,23290,23290,23290,23290,23290,23290,23290,23290,23290,23290,23182,23182,23182,23182,23182,23182,23182,23182,23182,23182,23182,23182,23182,23182,23182,23182,23182,23182,23182,23182,23182,23182,23182,23182,23182,23182,23182,23182,23182,23140,23140,23140,23140,23140,23100,23100,23100,23100,23100,23100,23100,23100,23100,23100,23100,23100,23100,23100,23100,23100,23100,23100,23100,23100,23100,23100,23100,23100,23100,23058,23058,23058,23058,23058,23058,23058,23058,23058,23037,23037,23037,23037,23037,23037,23037,23037,23037,23037,23037,23037,23037,23037,23037,23037,23037,23037,23037,23037,23037,23037,23037,23037,23037,23037,23037,23037,23037,23037,23037,23037,23037,23037,23037,23037,23037,23037,23037,23037,23037,23037,23037,23037,23037,23037,23037,23037,23037,23037,23037,23037,23037,23037,23037,23037,23037,23037,23037,23037,23037,23037,23037,23037,23037,23037,23037,23037,23037,23037,23037,23037,23037,23037,23037,23037,23037,23037,23037,23037,23037,23037,23037,23037,23037,23037,23037,23037,23037,23037,23037,23037,23037,23037,23037,23037,23037,23037,23037,23037,23037,23037,23037,23037,23037,23037,23037,23037,23037,23037,23037,23037,23037,23037,23037,23037,23037,23037,23037,23037,23037,23037,23037,23037,23037,23037,23037,23037,23037,23037,23037,23037,23037,23037,23037,23037,23037,23037,23037,23037,23037,23037,23037,23037,23037,23037,23037,23037,23037,23037,23037,23037,23037,23037,23037,23037,23037,23037,23037,23037,23037,23037,23037,23037,23037,23037,23037,23037,23037,23037,23037,23037,23037,23037,23037,23037,23037,23037,23037,23037,23037,23037,23037,23037,23037,23037,23037,23037,23037,23037,23037,23037,23037,23037,23037,23037,23037,23037,23037,23037,23037,23037,23037,23037,23037,23037,23037,23037,23037,23037,23037,23037,23037,23037,23037,23037,23037,23037,23037,23037,23037,23037,23037,23037,23037,23037,23037,23037,23037,23037,23037,23037,23037,23037,23037,23037,23037,23037,23037,23037,23037,23037,23037,23037,23037,23037,23037,23037,23037,23037,23037,23037,23037,23037,23037,23037,23037,23037,23037,23037,23037,23037,23037,23037,23037,23037,23037,23037,23037,23037,23037,23037,23037,23037,23037,23037,23037,23037,23037,23037,23037,23037,23037,23037,23037,23037,23037,23037,23037,23037,23037,23037,23037,23037,23037,23037,23037,23037,23037,23037,23037,23037,23037,23037,23037,23037,23037,23037,23037,23037,23037,23037,23037,23037,23037,23037,23037,23037,23037,23037,23037,23037,23037,23037,23037,23037,23037,23037,23037,23037,23037,23037,23037,23037,23037,23037,23037,23037,23037,23037,23037,23037,23037,23037,23037,23037,23037,23037,23037,23037,23037,23037,23037,23037,23037,23037,23037,23037,23037,23037,23037,23037,23037,23037,23037,23037,23037,23037,23037,23037,23037,23037,23037,23037,23037,23037,23037,23037,23037,23037,23037,23037,23037,23037,23037,23037,23037,23037,23037,23037,23037,23037,23037,23037,23037,23037,23037,23037,23037,23037,23037,23037,23037,23037,23037,23037,23037,23037,23037,23037,23037,23037,23037,23037,23037,23037,23037,23037,23037,23037,23037,23037,23037,23037,23037,23037,23037,23037,23037,23037,23037,23037,23037,23037,23037,23037,23037,23037,23037,23037,23037,23037,23037,23037,23037,23037,23037,23037,23037,23037,23037,23037,23037,23037,23037,23037,23037,23037,23037,23037,23037,23037,23037,23037,23037,23037,23037,23037,23037,23037,23037,23037,23037,23037,23037,23037,23037,23037,23037,23037,23037,23037,23037,23037,23037,23037,23037,23037,23037,23037,23037,23037,23037,23037,23037,23037,23037,23037,23037,23037,23037,23037,23037,23037,23037,23037,23037,23037,23037,23037,23037,23037,23037,23037,23037,23037,23037,23037,23037,23037,23037,23037,23037,23037,23037,23037,23037,23037,23037,23037,23037,23037,23037,23037,23037,23037,23037,23037,23037,23037,23037,23037,23037,23037,23037,23037,23037,23037,23037,23037,23037,23037,23037,23037,23037,23037,23037,23037,23037,23037,23037,23037,23037,23037,23037,23037,23037,23037,23037,23037,23037,23037,23037,23037,23037,23037,23037,23037,23037,23037,23037,23037,23037,23037,23037,23037,23037,23037,23037,23037,23037,23037,23037,23037,23037,23037,23037,23037,23037,23037,23037,23037,23037,23037,23037,23037,23037,23037,23037,23037,23037,23037,23037,23037,23037,23037,23037,23037,23037,23037,23037,23037,23037,23037,23037,23037,23037,23037,23037,23037,23037,23037,23037,23037,23037,23037,23037,23037,23037,23037,23037,23037,23037,23037,23037,23037,23037,23037,23037,23037,23037,23037,23037,23037,23037,23037,23037,23037,23037,23037,23037,23037,23037,23037,23037,23037,23037,23037,23037,23037,23037,23037,23037,23037,23037,23037,23037,23037,23037,23037,23037,23037,23037,23037,23037,23037,23037,23037,23037,23037,23037,23037,23037,23037,23037,23037,23037,23037,23037,23037,23037,23037,23037,23037,23037,23037,23037,23037,23037,23037,23037,23037,23037,23037,23037,23037,23037,23037,23037,23037,23037,23037,23037,23037,23037,23037,23037,23037,23037,23037,23037,23037,23037,23037,23037,23037,23037,23037,23037,23037,23037,23037,23037,23037,23037,23037,23037,23037,23037,23037,23037,23037,23037,23037,23037,23037,23037,23037,23037,23037,23037,23037,23037,23037,23037,23037,23037,23037,23037,23037,23037,23037,23037,23037,23037,23037,23037,23037,23037,23037,23037,23037,23037,23037,23037,23037,23037,23037,23037,23037,23037,23037,23037,23037,23037,23037,23037,23037,23037,23037,23037,23037,23037,23037,23037,23037,23037,23037,23037,23037,23037,23037,23037,23037,23037,23037,23037,23037,23037,23037,23037,23037,23037,23037,23037,23037,23037,23037,23037,23037,23037,23037,23037,23037,23037,23037,23037,23037,23037,23037,23037,23037,23037,23037,23037,23037,23037,23037,23037,23037,23037,23037,23037,23037,23037,23037,23037,23037,23037,23037,23037,23037,23037,23037,23037,23037,23037,23037,23037,23037,23037,23037,23037,23037,23037,23037,23037,23037,23037,23037,23037,23037,23037,23037,23037,23037,23037,23037,23037,23037,23037,23037,23037,23037,23037,23037,23037,23037,23037,23037,23037,23037,23037,23037,23037,23037,23037,23037,23037,23037,23037,23037,23037,23037,23037,23037,23037,23037,23037,23037,23037,23037,23037,23037,23037,23037,23037,23037,23037,23037,23037,23037,23037,23037,23037,23037,23037,23037,23037,23037,23037,23037,23037,23037,23037,23037,23037,23037,23037,23037,23037,23037,23037,23037,23037,23037,23037,23037,23037,23037,23037,23037,23037,23037,23037,23037,23037,23037,23037,23037,23037,23037,23037,23037,23037,23037,23037,23037,23037,23037,23037,23037,23037,23037,23037,23037,23037,23037,23037,23037,23037,23037,23037,23037,23037,23037,23037,23037,23037,23037,23037,23037,23037,23037,23037,23037,23037,23037,23037,23037,23037,23037,23037,23037,23037,23037,23037,23037,23037,23037,23037,23037,23037,23037,23037,23037,23037,23037,23037,23037,23037,23037,23037,23037,23037,23037,23037,23037,23037,23037,23037,23037,23037,23037,23037,23037,23037,23037,23037,23037,23037,23037,23037,23037,23037,23037,23037,23037,23037,23037,23037,23037,23037,23037,23037,23037,23037,23037,23037,23037,23037,23037,23037,23037,23037,23037,23037,23037,23037,23037,23037,23037,23037,23037,23037,23037,23037,23037,23037,23037,23037,23037,23037,23037,23037,23037,23037,23037,23037,23037,23037,23037,23037,23037,23037,23037,23037,23037,23037,23037,23037,23037,23037,23037,23037,23037,23037,23037,23037,23037,23037,23037,23037,23037,23037,23037,23037,23037,23037,23037,23037,23037,23037,23037,23037,23037,23037,23037,23037,23037,23037,23037,23037,23037,23037,23037,23037,23037,23037,23037,23037,23037,23037,23037,23037,23037,23037,23037,23037,23037,23037,23037,23037,23037,23037,23037,23037,23037,23037,23037,23037,23037,23037,23037,23037,23037,23037,23037,23037,23037,23037,23037,23037,23037,23037,23037,23037,23037,23037,23037,23037,23037,23037,23037,23037,23037,23037,23037,23037,23037,23037,23037,23037,23037,23037,23037,23037,23037,23037,23037,23037,23037,23037,23037,23037,23037,23037,23037,23037,23037,23037,23037,23037,23037,23037,23037,23037,23037,23037,23037,23037,23037,23037,23037,23037,23037,23037,23037,23037,23037,23037,23037,23037,23037,23037,23037,23037,23037,23037,23037,23037,23037,23037,23037,23037,23037,23037,23037,23037,23037,23037,23037,23037,23037,23037,23037,23037,23037,23037,23037,23037,23037,23037,23037,23037,23037,23037,23037,23037,23037,23037,23037,23037,23037,23037,23037,23037,23037,23037,23037,23037,23037,23037,23037,23037,23037,23037,23037,23037,23037,23037,23037,23037,23037,23037,23037,23037,23037,23037,23037,23037,23037,23037,23037,23037,23037,23037,23037,23037,23037,23037,23037,23037,23037,23037,23037,23037,23037,23037,23037,23037,23037,23037,23037,23037,23037,23037,23037,23037,23037,23037,23037,23037,23037,23037,23037,23037,23037,23037,23037,23037,23037,23037,23037,23037,23037,23037,23037,23037,23037,23037,23037,23037,23037,23037,23037,23037,23037,23037,23037,23037,23037,23037,23037,23037,23037,23037,23037,23037,23037,23037,23037,23037,23037,23037,23037,23037,23037,23037,23037,23037,23037,23037,23037,23037,23037,23037,23037,23037,23037,23037,23037,23037,23037,23037,23037,23037,23037,23037,23037,23037,23037,23037,23037,23037,23037,23037,23037,23037,23037,23037,23037,23037,23037,23037,23037,23037,23037,23037,23037,23037,23037,23037,23037,23037,23037,23037,23037,23037,23037,23037,23037,23037,23037,23037,23037,23037,23037,23037,23037,23037,23037,23037,23037,23037,23037,23037,23037,23037,23037,23037,23037,23037,23037,23037,23037,23037,23037,23037,23037,23037,23037,23037,23037,23037,23037,23037,23037,23037,23037,23037,23037,23037,23037,23037,23037,23037,23037,23037,23037,23037,23037,23037,23037,23037,23037,23037,23037,23037,23037,23037,23037,23037,23037,23037,23037,23037,23037,23037,23037,23037,23037,23037,23037,23037,23037,23037,23037,23037,23037,23037,23037,23037,23037,23037,23037,23037,23037,23037,23037,23037,23037,23037,23037,23037,23037,23037,23037,23037,23037,23037,23037,23037,23037,23037,23037,23037,23037,23037,23037,23037,23037,23037,23037,23037,23037,23037,23037,23037,23037,23037,23037,23037,23037,23037,23037,23037,23037,23037,23037,23037,23037,23037,23037,23037,23037,23037,23037,23037,23037,23037,23037,23037,23037,23037,23037,23037,23037,23037,23037,23037,23037,23037,23037,23037,23037,23037,23037,23037,23037,23037,23037,23037,23037,23037,23037,23037,23037,23037,23037,23037,23037,23037,23037,23037,23037,23037,23037,23037,23037,23037,23037,23037,23037,23037,23037,23037,23037,23037,23037,23037,23037,23037,23037,23037,23037,23037,23037,23037,23037,23037,23037,23037,23037,23037,23037,23037,23037,23037,23037,23037,23037,23037,23037,23037,23037,23037,23037,23037,23037,23037,23037,23037,